p cnf 21 7
a 1 0
e 2 0
a 3 4 5 0
e 6 7 8 0
a 9 10 0
e 11 0
a 12 0
e 13 14 0
a 15 0
e 16 0
a 17 18 0
e 19 0
a 20 0
e 21 0
-6 -10 20 -7 0
16 7 -12 0
7 4 -13 3 0
-14 -10 -17 8 -3 0
-21 10 -18 0
9 16 5 7 21 0
-1 20 -10 14 0
